NAME : n20w200.005.277.tour
COMMENT : Length = 277
COMMENT : Found by LKH [Keld Helsgaun] Tue May  2 05:47:16 2017
TYPE : TOUR
DIMENSION : 21
TOUR_SECTION
1
2
11
19
14
12
9
3
13
10
15
17
18
4
7
16
21
20
6
5
8
-1
EOF
